\* Question_4c *\
Maximize
Objective_func: 60 A + 70 B + 40 C + 70 D + 17 E + 100 F - 15 O
Subject To
_C1: 6 A + 7 B + 4 C + 9 D + 3 E + 8 F - O = 20
Bounds
0 <= O
Generals
O
Binaries
A
B
C
D
E
F
End
